(declare-fun _for_it_107 () Int)
(declare-fun _for_it_23 () Int)
(declare-fun kfdia () Int)
(declare-fun kidia () Int)
(declare-fun klev () Int)
(declare-fun ncldtop () Int)

(assert (forall ((_if_cond_79_val (Array Int Int)))
  (and
    (forall ((_for_it_108_0 Int) (_for_it_108_1 Int))
      (or
        (not (<= _for_it_108_1 (+ kfdia (- 1))))
        (not (= 4 (- (+ _for_it_107 2) 1)))
        (not (<= (+ kidia (- 1)) _for_it_108_1))
        (not (<= _for_it_108_0 (+ kfdia (- 1))))
        (not (<= (+ kidia (- 1)) _for_it_108_0))
        (not (= (select _if_cond_79_val (- (+ (* _for_it_107 (- kfdia kidia)) _for_it_108_0 (* (- (+ _for_it_23 1) ncldtop) (- (* kfdia 3) (* kidia 3))) 1) kidia)) 1))
        (not (= _for_it_108_0 (- (+ _for_it_108_1 1) 1)))
      )
    )
    (forall ((_for_it_108_0 Int) (_for_it_108_1 Int))
      (or
        (not (<= _for_it_108_1 (+ kfdia (- 1))))
        (not (= (- (+ _for_it_108_0 1) 1) _for_it_108_1))
        (not (<= (+ kidia (- 1)) _for_it_108_1))
        (not (= (select _if_cond_79_val (- (+ (* (+ _for_it_107 1) (- kfdia kidia)) _for_it_108_1 (* (- (+ _for_it_23 1) ncldtop) (- (* kfdia 3) (* kidia 3))) 1) kidia)) 1))
        (not (<= _for_it_108_0 (+ kfdia (- 1))))
        (not (<= (+ kidia (- 1)) _for_it_108_0))
        (not (= (- (+ _for_it_107 1) 1) (+ _for_it_107 1)))
      )
    )
    (forall ((_for_it_108_0 Int) (_for_it_108_1 Int))
      (or
        (not (<= _for_it_108_1 (+ kfdia (- 1))))
        (not (= (- (+ _for_it_108_0 1) 1) _for_it_108_1))
        (not (<= (+ kidia (- 1)) _for_it_108_1))
        (not (= (- (+ _for_it_107 1) 1) 4))
        (not (= (select _if_cond_79_val (- (+ (* (+ _for_it_107 1) (- kfdia kidia)) _for_it_108_1 (* (- (+ _for_it_23 1) ncldtop) (- (* kfdia 3) (* kidia 3))) 1) kidia)) 1))
        (not (<= _for_it_108_0 (+ kfdia (- 1))))
        (not (<= (+ kidia (- 1)) _for_it_108_0))
      )
    )
    (and
      (<= (+ _for_it_107 1) 3)
      (<= kidia (+ kfdia (- 1)))
      (<= ncldtop (+ klev (- 1)))
      (<= 0 _for_it_107)
    )
    (forall ((_for_it_108_0 Int) (_for_it_108_1 Int))
      (or
        (not (= (- (+ (* _for_it_107 (- kfdia kidia)) _for_it_108_0 (* (- (+ _for_it_23 1) ncldtop) (- (* kfdia 3) (* kidia 3))) 1) kidia) (- (+ (* (+ _for_it_107 1) (- kfdia kidia)) _for_it_108_1 (* (- (+ _for_it_23 1) ncldtop) (- (* kfdia 3) (* kidia 3))) 1) kidia)))
        (not (<= _for_it_108_1 (+ kfdia (- 1))))
        (not (<= (+ kidia (- 1)) _for_it_108_1))
        (not (<= _for_it_108_0 (+ kfdia (- 1))))
        (not (<= (+ kidia (- 1)) _for_it_108_0))
      )
    )
    (forall ((_for_it_108_0 Int) (_for_it_108_1 Int))
      (or
        (not (= _for_it_107 (+ _for_it_107 1)))
        (not (<= _for_it_108_1 (+ kfdia (- 1))))
        (not (<= (+ kidia (- 1)) _for_it_108_1))
        (not (= (select _if_cond_79_val (- (+ (* (+ _for_it_107 1) (- kfdia kidia)) _for_it_108_1 (* (- (+ _for_it_23 1) ncldtop) (- (* kfdia 3) (* kidia 3))) 1) kidia)) 1))
        (not (<= _for_it_108_0 (+ kfdia (- 1))))
        (not (<= (+ kidia (- 1)) _for_it_108_0))
        (not (= (select _if_cond_79_val (- (+ (* _for_it_107 (- kfdia kidia)) _for_it_108_0 (* (- (+ _for_it_23 1) ncldtop) (- (* kfdia 3) (* kidia 3))) 1) kidia)) 1))
        (not (= _for_it_108_0 _for_it_108_1))
      )
    )
    (forall ((_for_it_108_0 Int) (_for_it_108_1 Int))
      (or
        (not (<= _for_it_108_1 (+ kfdia (- 1))))
        (not (<= (+ kidia (- 1)) _for_it_108_1))
        (not (= (select _if_cond_79_val (- (+ (* (+ _for_it_107 1) (- kfdia kidia)) _for_it_108_1 (* (- (+ _for_it_23 1) ncldtop) (- (* kfdia 3) (* kidia 3))) 1) kidia)) 1))
        (not (<= _for_it_108_0 (+ kfdia (- 1))))
        (not (<= (+ kidia (- 1)) _for_it_108_0))
        (not (= (select _if_cond_79_val (- (+ (* _for_it_107 (- kfdia kidia)) _for_it_108_0 (* (- (+ _for_it_23 1) ncldtop) (- (* kfdia 3) (* kidia 3))) 1) kidia)) 1))
        (and
          (or
            (not (= _for_it_108_0 _for_it_108_1))
            (not (= _for_it_107 (+ _for_it_107 1)))
          )
          (or
            (not (= _for_it_108_0 _for_it_108_1))
            (not (= _for_it_107 4))
          )
        )
      )
    )
    (forall ((_for_it_108_0 Int) (_for_it_108_1 Int))
      (or
        (not (<= _for_it_108_1 (+ kfdia (- 1))))
        (not (<= (+ kidia (- 1)) _for_it_108_1))
        (not (= _for_it_107 (- (+ _for_it_107 2) 1)))
        (not (<= _for_it_108_0 (+ kfdia (- 1))))
        (not (<= (+ kidia (- 1)) _for_it_108_0))
        (not (= (select _if_cond_79_val (- (+ (* _for_it_107 (- kfdia kidia)) _for_it_108_0 (* (- (+ _for_it_23 1) ncldtop) (- (* kfdia 3) (* kidia 3))) 1) kidia)) 1))
        (not (= _for_it_108_0 (- (+ _for_it_108_1 1) 1)))
      )
    )
    (forall ((_for_it_108_0 Int) (_for_it_108_1 Int))
      (or
        (and
          (or
            (not (= _for_it_108_0 _for_it_108_1))
            (not (= 4 (+ _for_it_107 1)))
          )
          (or
            (not (= _for_it_108_0 _for_it_108_1))
            (not (= _for_it_107 (+ _for_it_107 1)))
          )
        )
        (not (<= _for_it_108_1 (+ kfdia (- 1))))
        (not (<= (+ kidia (- 1)) _for_it_108_1))
        (not (= (select _if_cond_79_val (- (+ (* (+ _for_it_107 1) (- kfdia kidia)) _for_it_108_1 (* (- (+ _for_it_23 1) ncldtop) (- (* kfdia 3) (* kidia 3))) 1) kidia)) 1))
        (not (<= _for_it_108_0 (+ kfdia (- 1))))
        (not (<= (+ kidia (- 1)) _for_it_108_0))
        (not (= (select _if_cond_79_val (- (+ (* _for_it_107 (- kfdia kidia)) _for_it_108_0 (* (- (+ _for_it_23 1) ncldtop) (- (* kfdia 3) (* kidia 3))) 1) kidia)) 1))
      )
    )
    (forall ((_for_it_108_0 Int) (_for_it_108_1 Int))
      (or
        (and
          (or
            (not (= _for_it_108_0 _for_it_108_1))
            (not (= 4 (+ _for_it_107 1)))
          )
          (not (= _for_it_108_0 _for_it_108_1))
          (or
            (not (= _for_it_108_0 _for_it_108_1))
            (not (= _for_it_107 4))
          )
        )
        (not (<= _for_it_108_1 (+ kfdia (- 1))))
        (not (<= (+ kidia (- 1)) _for_it_108_1))
        (not (= (select _if_cond_79_val (- (+ (* (+ _for_it_107 1) (- kfdia kidia)) _for_it_108_1 (* (- (+ _for_it_23 1) ncldtop) (- (* kfdia 3) (* kidia 3))) 1) kidia)) 1))
        (not (<= _for_it_108_0 (+ kfdia (- 1))))
        (not (<= (+ kidia (- 1)) _for_it_108_0))
        (not (= (select _if_cond_79_val (- (+ (* _for_it_107 (- kfdia kidia)) _for_it_108_0 (* (- (+ _for_it_23 1) ncldtop) (- (* kfdia 3) (* kidia 3))) 1) kidia)) 1))
      )
    )
  )
))

(check-sat)